c A SAT instance generated from a 3-CNF formula that had 50 clauses and 10 variables
p cnf 10 50
-6 -1 8 0
-8 -7 6 0
-10 4 1 0
8 5 -1 0
-3 -7 4 0
8 -4 -5 0
6 -7 -10 0
-9 6 2 0
-7 -6 5 0
2 -9 -6 0
5 -10 1 0
7 6 1 0
-10 -9 -8 0
8 1 -3 0
-6 5 -3 0
3 -7 -5 0
4 5 -7 0
-2 -5 -4 0
-1 -4 8 0
8 6 -9 0
7 4 9 0
-10 8 -3 0
10 -6 4 0
9 -5 8 0
2 1 -6 0
3 -10 2 0
10 -1 -5 0
10 9 8 0
-9 1 -4 0
-9 10 -8 0
-2 -3 6 0
-7 -1 -6 0
6 10 4 0
3 -10 -2 0
-10 5 2 0
-8 1 4 0
7 -2 -5 0
3 -1 -2 0
-7 8 10 0
-4 -10 -2 0
-2 -4 -9 0
-7 -1 -4 0
-10 1 -2 0
-1 6 7 0
9 -3 2 0
-8 4 1 0
-8 6 -2 0
4 9 7 0
4 -2 3 0
1 -5 -2 0
